pure_adt/tip2015_weird_nat_add3acc_comm12.smt2
(set-logic HORN)
(declare-datatypes ((Nat_424 0)) (((zero_101 ) (succ_99 (p_286 Nat_424)))))
(declare-fun diseqNat_424 (Nat_424 Nat_424) Bool)
(declare-fun p_287 (Nat_424 Nat_424) Bool)
(declare-fun iszero_99 (Nat_424) Bool)
(declare-fun issucc_99 (Nat_424) Bool)
(assert (forall ((x_46414 Nat_424))
	(p_287 x_46414 (succ_99 x_46414))))
(assert (iszero_99 zero_101))
(assert (forall ((x_46416 Nat_424))
	(issucc_99 (succ_99 x_46416))))
(assert (forall ((x_46417 Nat_424))
	(diseqNat_424 zero_101 (succ_99 x_46417))))
(assert (forall ((x_46418 Nat_424))
	(diseqNat_424 (succ_99 x_46418) zero_101)))
(assert (forall ((x_46419 Nat_424) (x_46420 Nat_424))
	(=> (diseqNat_424 x_46419 x_46420)
	    (diseqNat_424 (succ_99 x_46419) (succ_99 x_46420)))))
(declare-fun addacc_14 (Nat_424 Nat_424 Nat_424 Nat_424) Bool)
(assert (forall ((x_46405 Nat_424) (x_46402 Nat_424) (y_1661 Nat_424) (z_1496 Nat_424))
	(=> (addacc_14 x_46405 x_46402 (succ_99 y_1661) z_1496)
	    (addacc_14 x_46405 (succ_99 x_46402) y_1661 z_1496))))
(assert (forall ((x_46407 Nat_424) (x_46403 Nat_424) (z_1496 Nat_424))
	(=> (addacc_14 x_46407 zero_101 x_46403 (succ_99 z_1496))
	    (addacc_14 x_46407 zero_101 (succ_99 x_46403) z_1496))))
(assert (forall ((x_46409 Nat_424))
	(addacc_14 x_46409 zero_101 zero_101 x_46409)))
(assert (forall ((x_46410 Nat_424) (x_46411 Nat_424) (x_46404 Nat_424) (y_1662 Nat_424) (z_1497 Nat_424))
	(=>	(and true
			(diseqNat_424 x_46410 x_46411)
			(addacc_14 x_46410 x_46404 y_1662 z_1497)
			(addacc_14 x_46411 y_1662 x_46404 z_1497))
		false)))
(check-sat)
